17
1 0 55
2 0 42
2 1 8
4 0 37
4 2 27
5 0 13
5 3 34
5 4 52
6 0 53
6 1 17
7 3 64
7 4 19
7 5 65
8 2 64
8 3 63
9 0 63
9 2 9
9 4 41
9 6 15
9 7 59
9 8 38
10 0 23
10 2 5
10 4 65
10 5 30
10 8 60
10 9 52
11 0 9
11 1 17
11 4 15
11 5 14
11 7 23
11 10 31
12 0 42
12 2 17
12 3 30
12 5 57
12 9 35
12 10 42
13 0 46
13 1 1
13 4 29
13 5 37
13 7 10
13 10 54
14 0 6
14 1 62
14 8 44
14 10 57
14 11 49
14 12 45
15 1 62
15 3 61
15 6 54
15 9 50
15 10 55
15 11 19
16 1 25
16 2 38
16 3 5
16 4 36
16 6 13
16 7 33
16 9 62
16 10 24
16 11 34
16 14 28
